unsat
(:SPACER-inductive-gen                7
 :SPACER-inductive-gen-weaken-fail    12
 :SPACER-inductive-level              3
 :SPACER-max-depth                    4
 :SPACER-max-query-lvl                4
 :SPACER-num-active-lemmas            7
 :SPACER-num-ctp-blocked              1
 :SPACER-num-invariants               5
 :SPACER-num-is_invariant             21
 :SPACER-num-lemmas                   12
 :SPACER-num-pobs                     5
 :SPACER-num-propagations             12
 :SPACER-num-queries                  7
 :added-eqs                           1120
 :arith-assert-diseq                  242
 :arith-assert-lower                  1372
 :arith-assert-upper                  738
 :arith-bound-prop                    274
 :arith-conflicts                     54
 :arith-eq-adapter                    224
 :arith-fixed-eqs                     160
 :arith-num-rows                      54
 :arith-offset-eqs                    32
 :arith-pivots                        316
 :arith-row-summations                2380
 :arith-tableau-max-columns           114
 :arith-tableau-max-rows              54
 :conflicts                           182
 :decisions                           896
 :del-clause                          404
 :final-checks                        50
 :iuc_solver.num_proxies              33
 :max-memory                          31.22
 :memory                              30.67
 :minimized-lits                      100
 :mk-bool-var                         1026
 :mk-clause                           1040
 :num-allocs                          6303809
 :num-checks                          136
 :pool_solver.checks                  68
 :pool_solver.checks.sat              16
 :pool_solver.checks.undef            9
 :propagations                        4314
 :rlimit-count                        56098
 :time                                0.06
 :time.iuc_solver.get_iuc             0.01
 :time.iuc_solver.get_iuc.hyp_reduce1 0.00
 :time.iuc_solver.get_iuc.hyp_reduce2 0.00
 :time.iuc_solver.get_iuc.learn_core  0.00
 :time.pool_solver.proof              0.00
 :time.pool_solver.smt.total          0.02
 :time.pool_solver.smt.total.sat      0.00
 :time.pool_solver.smt.total.undef    0.01
 :time.spacer.init_rules              0.00
 :time.spacer.solve                   0.04
 :time.spacer.solve.propagate         0.01
 :time.spacer.solve.reach             0.03
 :time.spacer.solve.reach.children    0.00
 :time.spacer.solve.reach.cluster     0.00
 :time.spacer.solve.reach.gen.ind     0.01)
(:max-memory   31.22
 :memory       30.67
 :num-allocs   6303809
 :rlimit-count 56098
 :time         0.06
 :total-time   0.08)
